p cnf 19 10
a 1 2 0
e 3 4 0
a 5 0
e 6 7 0
a 8 9 10 0
e 11 0
a 12 0
e 13 0
a 14 0
e 15 0
a 16 17 0
e 18 19 0
-3 16 4 -13 -2 0
12 -16 0
17 8 0
3 -5 -9 12 -10 0
-10 9 2 11 -7 0
8 -9 -3 7 0
-19 12 0
-15 -16 -3 5 -6 0
-8 -7 -1 0
13 -19 0
